c Generated map
c Size: 8 * 8, weights in range: 1 to 10, walls: True, with ratio 0.05
c dim 4 of 8
c
p sp 64 101
c graph contains 64 nodes and 101 arcs
c
a 1 9 2
a 9 1 2
a 1 2 3
a 2 1 3
a 2 10 10
a 10 2 10
a 2 3 8
a 3 2 8
a 3 11 1
a 11 3 1
a 3 4 2
a 4 3 2
a 4 12 7
a 12 4 7
a 4 5 3
a 5 4 3
a 5 13 8
a 13 5 8
a 5 6 9
a 6 5 9
a 6 14 7
a 14 6 7
a 6 7 6
a 7 6 6
a 7 15 10
a 15 7 10
a 7 8 4
a 8 7 4
a 8 16 10
a 16 8 10
a 9 17 2
a 17 9 2
a 9 10 9
a 10 9 9
a 10 18 7
a 18 10 7
a 10 11 3
a 11 10 3
a 11 19 7
a 19 11 7
a 11 12 2
a 12 11 2
a 12 20 6
a 20 12 6
a 12 13 5
a 13 12 5
a 13 21 1
a 21 13 1
a 13 14 4
a 14 13 4
a 14 22 10
a 22 14 10
a 14 15 9
a 15 14 9
a 15 23 8
a 23 15 8
a 15 16 4
a 16 15 4
a 16 24 1
a 24 16 1
a 17 25 4
a 25 17 4
a 17 18 9
a 18 17 9
a 18 26 2
a 26 18 2
a 18 19 2
a 19 18 2
a 19 20 8
a 20 19 8
a 20 28 5
a 28 20 5
a 20 21 9
a 21 20 9
a 21 29 8
a 29 21 8
a 21 22 5
a 22 21 5
a 22 30 3
a 30 22 3
a 22 23 6
a 23 22 6
a 23 31 3
a 31 23 3
a 23 24 8
a 24 23 8
a 24 32 10
a 32 24 10
a 25 33 2
a 33 25 2
a 25 26 6
a 26 25 6
a 26 34 9
a 34 26 9
a 28 36 10
a 36 28 10
a 28 29 4
a 29 28 4
a 29 37 9
a 37 29 9
a 29 30 2
a 30 29 2
a 30 38 1
a 38 30 1
a 30 31 6
a 31 30 6
a 31 39 5
a 39 31 5
a 31 32 3
a 32 31 3
a 32 40 8
a 40 32 8
a 33 41 8
a 41 33 8
a 33 34 8
a 34 33 8
a 34 42 4
a 42 34 4
a 34 35 10
a 35 34 10
a 35 36 2
a 36 35 2
a 36 37 1
a 37 36 1
a 37 45 5
a 45 37 5
a 37 38 6
a 38 37 6
a 38 46 5
a 46 38 5
a 38 39 8
a 39 38 8
a 39 47 5
a 47 39 5
a 39 40 8
a 40 39 8
a 40 48 9
a 48 40 9
a 41 49 4
a 49 41 4
a 41 42 6
a 42 41 6
a 42 50 8
a 50 42 8
a 45 53 9
a 53 45 9
a 45 46 4
a 46 45 4
a 46 54 9
a 54 46 9
a 46 47 9
a 47 46 9
a 47 55 3
a 55 47 3
a 47 48 6
a 48 47 6
a 48 56 5
a 56 48 5
a 49 57 8
a 57 49 8
a 49 50 4
a 50 49 4
a 50 58 6
a 58 50 6
a 50 51 5
a 51 50 5
a 51 59 8
a 59 51 8
a 51 52 4
a 52 51 4
a 52 60 9
a 60 52 9
a 52 53 4
a 53 52 4
a 53 61 5
a 61 53 5
a 53 54 10
a 54 53 10
a 54 62 1
a 62 54 1
a 54 55 8
a 55 54 8
a 55 63 7
a 63 55 7
a 55 56 3
a 56 55 3
a 56 64 8
a 64 56 8
a 57 58 7
a 58 57 7
a 58 59 2
a 59 58 2
a 59 60 6
a 60 59 6
a 60 61 10
a 61 60 10
a 61 62 4
a 62 61 4
a 62 63 10
a 63 62 10
a 63 64 5
a 64 63 5
